param n := 60;
param c := 3000
param : V : p w :=
   0	 506	 496
   1	 260	 250
   2	 264	 254
   3	 406	 396
   4	 280	 270
   5	 344	 334
   6	 493	 483
   7	 262	 252
   8	 275	 265
   9	 473	 463
  10	 271	 261
  11	 286	 276
  12	 399	 389
  13	 293	 283
  14	 338	 328
  15	 390	 380
  16	 278	 268
  17	 362	 352
  18	 426	 416
  19	 292	 282
  20	 312	 302
  21	 398	 388
  22	 262	 252
  23	 370	 360
  24	 499	 489
  25	 262	 252
  26	 269	 259
  27	 443	 433
  28	 291	 281
  29	 296	 286
  30	 390	 380
  31	 295	 285
  32	 345	 335
  33	 382	 372
  34	 311	 301
  35	 337	 327
  36	 382	 372
  37	 291	 281
  38	 357	 347
  39	 365	 355
  40	 315	 305
  41	 350	 340
  42	 442	 432
  43	 288	 278
  44	 300	 290
  45	 472	 462
  46	 272	 262
  47	 286	 276
  48	 494	 484
  49	 262	 252
  50	 274	 264
  51	 432	 422
  52	 292	 282
  53	 306	 296
  54	 479	 469
  55	 272	 262
  56	 279	 269
  57	 368	 358
  58	 291	 281
  59	 371	 361
;

set E :=
   0	   1
   0	   2
   0	   3
   0	   4
   0	   5
   0	   6
   0	   8
   0	   9
   0	  11
   0	  14
   0	  16
   0	  21
   0	  23
   0	  24
   0	  28
   0	  29
   0	  30
   0	  31
   0	  32
   0	  36
   0	  39
   0	  42
   0	  43
   0	  44
   0	  45
   0	  47
   0	  48
   0	  52
   0	  53
   0	  55
   0	  56
   0	  59
   1	   2
   1	   5
   1	   6
   1	   8
   1	  10
   1	  14
   1	  15
   1	  18
   1	  21
   1	  22
   1	  24
   1	  26
   1	  27
   1	  28
   1	  29
   1	  30
   1	  31
   1	  32
   1	  34
   1	  36
   1	  37
   1	  38
   1	  40
   1	  42
   1	  43
   1	  46
   1	  48
   1	  50
   1	  52
   1	  54
   1	  56
   1	  57
   1	  58
   1	  59
   2	   3
   2	   4
   2	   5
   2	   6
   2	   7
   2	   9
   2	  10
   2	  12
   2	  14
   2	  15
   2	  17
   2	  18
   2	  19
   2	  21
   2	  23
   2	  28
   2	  29
   2	  30
   2	  31
   2	  32
   2	  33
   2	  34
   2	  35
   2	  37
   2	  38
   2	  39
   2	  41
   2	  43
   2	  44
   2	  47
   2	  50
   2	  52
   2	  55
   2	  57
   3	   5
   3	   7
   3	  10
   3	  11
   3	  12
   3	  13
   3	  14
   3	  15
   3	  16
   3	  19
   3	  21
   3	  22
   3	  23
   3	  25
   3	  26
   3	  28
   3	  29
   3	  32
   3	  33
   3	  37
   3	  38
   3	  39
   3	  40
   3	  41
   3	  42
   3	  43
   3	  44
   3	  45
   3	  46
   3	  47
   3	  48
   3	  49
   3	  50
   3	  51
   3	  52
   3	  53
   3	  54
   3	  55
   3	  56
   3	  58
   3	  59
   4	   6
   4	   8
   4	  10
   4	  13
   4	  15
   4	  17
   4	  18
   4	  19
   4	  20
   4	  22
   4	  23
   4	  25
   4	  26
   4	  27
   4	  30
   4	  31
   4	  32
   4	  34
   4	  38
   4	  40
   4	  43
   4	  44
   4	  46
   4	  48
   4	  49
   4	  50
   4	  51
   4	  52
   4	  53
   4	  55
   4	  56
   4	  58
   4	  59
   5	   8
   5	   9
   5	  10
   5	  11
   5	  13
   5	  14
   5	  18
   5	  19
   5	  20
   5	  21
   5	  23
   5	  24
   5	  25
   5	  28
   5	  29
   5	  31
   5	  33
   5	  34
   5	  35
   5	  36
   5	  37
   5	  39
   5	  41
   5	  46
   5	  48
   5	  50
   5	  53
   5	  54
   5	  55
   5	  56
   5	  57
   5	  58
   5	  59
   6	   8
   6	  11
   6	  12
   6	  13
   6	  16
   6	  17
   6	  19
   6	  20
   6	  21
   6	  22
   6	  23
   6	  26
   6	  27
   6	  28
   6	  30
   6	  31
   6	  32
   6	  33
   6	  38
   6	  42
   6	  44
   6	  46
   6	  47
   6	  49
   6	  50
   6	  51
   6	  52
   6	  54
   6	  55
   6	  57
   6	  59
   7	   8
   7	   9
   7	  10
   7	  12
   7	  15
   7	  18
   7	  19
   7	  22
   7	  25
   7	  26
   7	  27
   7	  29
   7	  30
   7	  31
   7	  32
   7	  36
   7	  38
   7	  41
   7	  43
   7	  44
   7	  45
   7	  48
   7	  49
   7	  50
   7	  51
   7	  52
   7	  55
   7	  56
   7	  57
   8	   9
   8	  10
   8	  12
   8	  13
   8	  16
   8	  19
   8	  20
   8	  23
   8	  24
   8	  25
   8	  26
   8	  27
   8	  28
   8	  33
   8	  34
   8	  35
   8	  36
   8	  37
   8	  38
   8	  39
   8	  42
   8	  43
   8	  45
   8	  47
   8	  48
   8	  50
   8	  51
   8	  52
   8	  54
   8	  55
   8	  59
   9	  11
   9	  13
   9	  15
   9	  17
   9	  21
   9	  22
   9	  23
   9	  24
   9	  25
   9	  26
   9	  27
   9	  28
   9	  33
   9	  34
   9	  35
   9	  39
   9	  40
   9	  42
   9	  44
   9	  45
   9	  46
   9	  49
   9	  50
   9	  51
   9	  53
   9	  54
   9	  55
   9	  56
   9	  58
  10	  11
  10	  16
  10	  17
  10	  19
  10	  20
  10	  22
  10	  24
  10	  26
  10	  27
  10	  28
  10	  34
  10	  36
  10	  37
  10	  39
  10	  41
  10	  43
  10	  44
  10	  46
  10	  47
  10	  48
  10	  49
  10	  52
  10	  57
  11	  12
  11	  14
  11	  15
  11	  16
  11	  17
  11	  18
  11	  20
  11	  22
  11	  24
  11	  25
  11	  27
  11	  28
  11	  30
  11	  31
  11	  34
  11	  38
  11	  39
  11	  40
  11	  43
  11	  44
  11	  45
  11	  48
  11	  50
  11	  51
  11	  52
  11	  53
  11	  54
  11	  55
  11	  56
  11	  58
  11	  59
  12	  13
  12	  14
  12	  18
  12	  20
  12	  21
  12	  22
  12	  23
  12	  24
  12	  25
  12	  26
  12	  33
  12	  35
  12	  36
  12	  37
  12	  38
  12	  39
  12	  41
  12	  43
  12	  44
  12	  45
  12	  46
  12	  47
  12	  48
  12	  49
  12	  50
  12	  53
  12	  55
  12	  57
  12	  58
  12	  59
  13	  14
  13	  15
  13	  18
  13	  20
  13	  21
  13	  22
  13	  25
  13	  26
  13	  27
  13	  29
  13	  30
  13	  31
  13	  32
  13	  34
  13	  35
  13	  38
  13	  39
  13	  40
  13	  41
  13	  42
  13	  43
  13	  44
  13	  46
  13	  47
  13	  48
  13	  49
  13	  50
  13	  51
  13	  52
  13	  54
  13	  56
  13	  57
  13	  58
  13	  59
  14	  16
  14	  18
  14	  19
  14	  21
  14	  23
  14	  26
  14	  27
  14	  30
  14	  32
  14	  34
  14	  35
  14	  36
  14	  37
  14	  38
  14	  39
  14	  41
  14	  42
  14	  45
  14	  48
  14	  49
  14	  50
  14	  51
  14	  52
  14	  55
  14	  56
  14	  58
  15	  17
  15	  18
  15	  19
  15	  20
  15	  23
  15	  24
  15	  26
  15	  30
  15	  31
  15	  32
  15	  33
  15	  34
  15	  38
  15	  40
  15	  41
  15	  42
  15	  43
  15	  44
  15	  46
  15	  47
  15	  48
  15	  50
  15	  51
  15	  52
  15	  53
  15	  56
  15	  57
  16	  17
  16	  18
  16	  19
  16	  22
  16	  23
  16	  24
  16	  26
  16	  27
  16	  29
  16	  30
  16	  31
  16	  32
  16	  34
  16	  35
  16	  36
  16	  37
  16	  39
  16	  40
  16	  42
  16	  43
  16	  46
  16	  47
  16	  50
  16	  53
  16	  54
  16	  55
  16	  56
  16	  57
  16	  58
  16	  59
  17	  18
  17	  19
  17	  20
  17	  23
  17	  24
  17	  25
  17	  28
  17	  29
  17	  32
  17	  35
  17	  36
  17	  38
  17	  40
  17	  41
  17	  42
  17	  43
  17	  44
  17	  45
  17	  46
  17	  49
  17	  51
  17	  52
  17	  53
  17	  55
  17	  57
  17	  58
  18	  19
  18	  20
  18	  22
  18	  25
  18	  26
  18	  27
  18	  28
  18	  30
  18	  31
  18	  32
  18	  35
  18	  38
  18	  39
  18	  40
  18	  41
  18	  42
  18	  44
  18	  45
  18	  46
  18	  47
  18	  48
  18	  49
  18	  50
  18	  51
  18	  54
  18	  55
  18	  56
  18	  57
  18	  59
  19	  20
  19	  21
  19	  22
  19	  23
  19	  24
  19	  26
  19	  27
  19	  28
  19	  29
  19	  31
  19	  32
  19	  33
  19	  34
  19	  35
  19	  36
  19	  37
  19	  39
  19	  40
  19	  41
  19	  42
  19	  43
  19	  45
  19	  46
  19	  48
  19	  50
  19	  51
  19	  53
  19	  55
  19	  58
  20	  22
  20	  23
  20	  24
  20	  25
  20	  26
  20	  27
  20	  28
  20	  29
  20	  30
  20	  31
  20	  32
  20	  34
  20	  35
  20	  36
  20	  39
  20	  40
  20	  42
  20	  45
  20	  48
  20	  49
  20	  50
  20	  52
  20	  53
  20	  57
  20	  59
  21	  22
  21	  24
  21	  26
  21	  27
  21	  28
  21	  29
  21	  30
  21	  31
  21	  33
  21	  35
  21	  36
  21	  38
  21	  39
  21	  40
  21	  42
  21	  43
  21	  44
  21	  46
  21	  47
  21	  48
  21	  49
  21	  50
  21	  51
  21	  52
  21	  53
  21	  54
  21	  56
  21	  57
  21	  58
  21	  59
  22	  23
  22	  24
  22	  26
  22	  27
  22	  28
  22	  32
  22	  34
  22	  36
  22	  39
  22	  43
  22	  44
  22	  47
  22	  48
  22	  51
  22	  52
  22	  56
  22	  59
  23	  26
  23	  27
  23	  30
  23	  31
  23	  32
  23	  33
  23	  34
  23	  35
  23	  38
  23	  39
  23	  42
  23	  44
  23	  45
  23	  48
  23	  51
  23	  52
  23	  56
  23	  57
  23	  58
  24	  25
  24	  29
  24	  30
  24	  33
  24	  34
  24	  35
  24	  36
  24	  37
  24	  38
  24	  40
  24	  41
  24	  42
  24	  43
  24	  44
  24	  45
  24	  47
  24	  48
  24	  49
  24	  50
  24	  51
  24	  52
  24	  53
  24	  56
  24	  57
  24	  59
  25	  27
  25	  28
  25	  29
  25	  30
  25	  32
  25	  33
  25	  37
  25	  39
  25	  42
  25	  46
  25	  48
  25	  49
  25	  50
  25	  51
  25	  52
  25	  54
  25	  55
  25	  56
  25	  58
  25	  59
  26	  27
  26	  28
  26	  29
  26	  30
  26	  33
  26	  34
  26	  35
  26	  36
  26	  37
  26	  38
  26	  42
  26	  44
  26	  45
  26	  48
  26	  49
  26	  50
  26	  51
  26	  52
  26	  55
  26	  56
  26	  57
  26	  59
  27	  30
  27	  31
  27	  32
  27	  34
  27	  35
  27	  36
  27	  38
  27	  41
  27	  42
  27	  44
  27	  45
  27	  46
  27	  50
  27	  51
  27	  52
  27	  53
  27	  57
  27	  59
  28	  29
  28	  30
  28	  31
  28	  32
  28	  33
  28	  36
  28	  37
  28	  41
  28	  42
  28	  45
  28	  49
  28	  50
  28	  51
  28	  56
  28	  58
  28	  59
  29	  31
  29	  33
  29	  34
  29	  35
  29	  36
  29	  37
  29	  38
  29	  39
  29	  40
  29	  41
  29	  42
  29	  43
  29	  44
  29	  45
  29	  48
  29	  49
  29	  50
  29	  51
  29	  52
  29	  54
  29	  55
  29	  56
  29	  57
  29	  58
  30	  32
  30	  34
  30	  35
  30	  37
  30	  39
  30	  41
  30	  42
  30	  45
  30	  47
  30	  48
  30	  49
  30	  52
  30	  53
  30	  55
  30	  57
  30	  58
  30	  59
  31	  32
  31	  33
  31	  34
  31	  35
  31	  37
  31	  38
  31	  39
  31	  42
  31	  44
  31	  45
  31	  46
  31	  48
  31	  49
  31	  52
  31	  54
  31	  55
  31	  56
  31	  57
  31	  58
  31	  59
  32	  33
  32	  35
  32	  39
  32	  40
  32	  42
  32	  44
  32	  45
  32	  46
  32	  48
  32	  51
  32	  52
  32	  53
  33	  34
  33	  35
  33	  37
  33	  42
  33	  44
  33	  46
  33	  47
  33	  49
  33	  50
  33	  52
  33	  53
  33	  55
  33	  56
  33	  57
  33	  58
  33	  59
  34	  35
  34	  37
  34	  38
  34	  40
  34	  42
  34	  45
  34	  46
  34	  47
  34	  48
  34	  49
  34	  50
  34	  51
  34	  53
  34	  54
  34	  55
  34	  56
  34	  58
  35	  38
  35	  39
  35	  41
  35	  42
  35	  44
  35	  47
  35	  48
  35	  50
  35	  51
  35	  53
  35	  56
  36	  37
  36	  38
  36	  41
  36	  42
  36	  46
  36	  50
  36	  51
  36	  52
  36	  53
  36	  57
  36	  58
  36	  59
  37	  38
  37	  39
  37	  40
  37	  43
  37	  44
  37	  45
  37	  46
  37	  47
  37	  49
  37	  50
  37	  53
  37	  54
  37	  55
  37	  56
  37	  57
  37	  59
  38	  39
  38	  42
  38	  43
  38	  45
  38	  47
  38	  50
  38	  53
  38	  54
  38	  58
  39	  40
  39	  41
  39	  43
  39	  45
  39	  47
  39	  50
  39	  52
  39	  54
  39	  59
  40	  41
  40	  43
  40	  45
  40	  46
  40	  47
  40	  50
  40	  51
  40	  54
  40	  56
  40	  58
  41	  42
  41	  43
  41	  45
  41	  47
  41	  49
  41	  50
  41	  51
  41	  52
  41	  55
  41	  57
  41	  58
  42	  44
  42	  45
  42	  47
  42	  51
  42	  52
  42	  53
  42	  54
  42	  56
  42	  58
  43	  44
  43	  45
  43	  47
  43	  48
  43	  49
  43	  56
  43	  58
  43	  59
  44	  45
  44	  47
  44	  48
  44	  49
  44	  51
  44	  52
  44	  53
  44	  54
  44	  55
  44	  56
  44	  57
  44	  58
  44	  59
  45	  47
  45	  55
  45	  56
  45	  59
  46	  48
  46	  50
  46	  53
  46	  56
  46	  58
  47	  48
  47	  49
  47	  50
  47	  51
  47	  52
  47	  53
  47	  56
  47	  57
  47	  58
  47	  59
  48	  49
  48	  50
  48	  51
  48	  52
  48	  53
  48	  58
  48	  59
  49	  50
  49	  51
  49	  53
  49	  54
  49	  56
  49	  57
  49	  59
  50	  51
  50	  52
  50	  54
  50	  56
  50	  57
  50	  58
  50	  59
  51	  55
  51	  56
  51	  57
  51	  58
  51	  59
  52	  53
  52	  55
  52	  57
  52	  59
  53	  54
  53	  56
  54	  55
  54	  58
  54	  59
  55	  56
  55	  57
  55	  58
  56	  57
  56	  59
  57	  58
  57	  59
  58	  59
;
